10 45
1 2 10
1 3 9
1 4 3
1 5 20
1 6 10
1 7 13
1 8 15
1 9 10
1 10 16
2 3 25
2 4 1
2 5 11
2 6 13
2 7 25
2 8 26
2 9 15
2 10 1
3 4 12
3 5 14
3 6 4
3 7 1
3 8 8
3 9 2
3 10 12
4 5 20
4 6 27
4 7 2
4 8 5
4 9 29
4 10 26
5 6 15
5 7 25
5 8 22
5 9 18
5 10 11
6 7 5
6 8 5
6 9 17
6 10 4
7 8 5
7 9 16
7 10 2
8 9 2
8 10 19
9 10 21
